p tdp 66 115
1 7
1 2
2 8
2 3
3 9
3 4
4 10
4 5
5 11
5 6
6 12
7 13
7 8
8 14
8 9
9 15
9 10
10 16
10 11
11 17
11 12
12 18
13 19
13 14
14 20
14 15
15 21
15 16
16 22
16 17
17 23
17 18
18 24
19 25
19 20
20 26
20 21
21 27
21 22
22 28
22 23
23 29
23 24
24 30
25 31
25 26
26 32
26 27
27 33
27 28
28 34
28 29
29 35
29 30
30 36
31 37
31 32
32 38
32 33
33 39
33 34
34 40
34 35
35 41
35 36
36 42
37 43
37 38
38 44
38 39
39 45
39 40
40 46
40 41
41 47
41 42
42 48
43 49
43 44
44 50
44 45
45 51
45 46
46 52
46 47
47 53
47 48
48 54
49 55
49 50
50 56
50 51
51 57
51 52
52 58
52 53
53 59
53 54
54 60
55 61
55 56
56 62
56 57
57 63
57 58
58 64
58 59
59 65
59 60
60 66
61 62
62 63
63 64
64 65
65 66
